(set-info :smt-lib-version 2.6)
(set-logic QF_NIA)
(set-info :source |
Generated by: Cristina Borralleras, Daniel Larraz, Albert Oliveras, Enric Rodriguez-Carbonell, Albert Rubio
Generated on: 2017-04-27
Generator: VeryMax
Application: Termination proving
Target solver: barcelogic
|)
(set-info :license "https://creativecommons.org/licenses/by/4.0/")
(set-info :category "industrial")
(set-info :status unknown)
(declare-fun Nl9arg11 () Int)
(declare-fun Nl9arg21 () Int)
(declare-fun Nl9arg31 () Int)
(declare-fun Nl9arg41 () Int)
(declare-fun Nl9arg51 () Int)
(declare-fun Nl9arg12 () Int)
(declare-fun Nl9arg22 () Int)
(declare-fun Nl9arg32 () Int)
(declare-fun Nl9arg42 () Int)
(declare-fun Nl9arg52 () Int)
(declare-fun lam0n0 () Int)
(declare-fun lam0n1 () Int)
(declare-fun lam0n2 () Int)
(declare-fun lam0n3 () Int)
(declare-fun lam0n4 () Int)
(declare-fun lam0n5 () Int)
(declare-fun lam0n6 () Int)
(declare-fun Nl9CT1 () Int)
(declare-fun Nl9CT2 () Int)
(declare-fun lam1n0 () Int)
(declare-fun lam1n1 () Int)
(declare-fun lam1n2 () Int)
(declare-fun lam1n3 () Int)
(declare-fun lam1n4 () Int)
(declare-fun lam1n5 () Int)
(declare-fun lam1n6 () Int)
(declare-fun lam2n0 () Int)
(declare-fun lam2n1 () Int)
(declare-fun lam2n2 () Int)
(declare-fun lam2n3 () Int)
(declare-fun lam2n4 () Int)
(declare-fun lam2n5 () Int)
(declare-fun lam2n6 () Int)
(declare-fun lam3n0 () Int)
(declare-fun lam3n1 () Int)
(declare-fun lam3n2 () Int)
(declare-fun lam3n3 () Int)
(declare-fun lam3n4 () Int)
(declare-fun lam3n5 () Int)
(declare-fun lam3n6 () Int)
(declare-fun lam3n7 () Int)
(declare-fun lam3n8 () Int)
(declare-fun lam3n9 () Int)
(declare-fun lam3n10 () Int)
(declare-fun lam3n11 () Int)
(declare-fun lam3n12 () Int)
(declare-fun lam3n13 () Int)
(declare-fun lam3n14 () Int)
(declare-fun lam3n15 () Int)
(declare-fun lam3n16 () Int)
(declare-fun lam4n0 () Int)
(declare-fun lam4n1 () Int)
(declare-fun lam4n2 () Int)
(declare-fun lam4n3 () Int)
(declare-fun lam4n4 () Int)
(declare-fun lam4n5 () Int)
(declare-fun lam4n6 () Int)
(declare-fun lam4n7 () Int)
(declare-fun lam4n8 () Int)
(declare-fun lam4n9 () Int)
(declare-fun lam4n10 () Int)
(declare-fun lam4n11 () Int)
(declare-fun lam4n12 () Int)
(declare-fun lam4n13 () Int)
(declare-fun lam4n14 () Int)
(declare-fun lam4n15 () Int)
(declare-fun lam4n16 () Int)
(declare-fun lam5n0 () Int)
(declare-fun lam5n1 () Int)
(declare-fun lam5n2 () Int)
(declare-fun lam5n3 () Int)
(declare-fun lam5n4 () Int)
(declare-fun lam5n5 () Int)
(declare-fun lam5n6 () Int)
(declare-fun lam5n7 () Int)
(declare-fun lam5n8 () Int)
(declare-fun lam5n9 () Int)
(declare-fun lam5n10 () Int)
(declare-fun lam5n11 () Int)
(declare-fun lam5n12 () Int)
(declare-fun lam5n13 () Int)
(declare-fun lam5n14 () Int)
(declare-fun lam5n15 () Int)
(declare-fun lam5n16 () Int)
(declare-fun lam5n17 () Int)
(declare-fun lam6n0 () Int)
(declare-fun lam6n1 () Int)
(declare-fun lam6n2 () Int)
(declare-fun lam6n3 () Int)
(declare-fun lam6n4 () Int)
(declare-fun lam6n5 () Int)
(declare-fun lam6n6 () Int)
(declare-fun lam6n7 () Int)
(declare-fun lam6n8 () Int)
(declare-fun lam6n9 () Int)
(declare-fun lam6n10 () Int)
(declare-fun lam6n11 () Int)
(declare-fun lam6n12 () Int)
(declare-fun lam6n13 () Int)
(declare-fun lam6n14 () Int)
(declare-fun lam6n15 () Int)
(declare-fun lam6n16 () Int)
(declare-fun lam6n17 () Int)
(declare-fun lam7n0 () Int)
(declare-fun lam7n1 () Int)
(declare-fun lam7n2 () Int)
(declare-fun lam7n3 () Int)
(declare-fun lam7n4 () Int)
(declare-fun lam7n5 () Int)
(declare-fun lam7n6 () Int)
(declare-fun lam7n7 () Int)
(declare-fun lam7n8 () Int)
(declare-fun lam7n9 () Int)
(declare-fun lam7n10 () Int)
(declare-fun lam7n11 () Int)
(declare-fun lam7n12 () Int)
(declare-fun lam7n13 () Int)
(declare-fun lam8n0 () Int)
(declare-fun lam8n1 () Int)
(declare-fun lam8n2 () Int)
(declare-fun lam8n3 () Int)
(declare-fun lam8n4 () Int)
(declare-fun lam8n5 () Int)
(declare-fun lam8n6 () Int)
(declare-fun lam8n7 () Int)
(declare-fun lam8n8 () Int)
(declare-fun lam8n9 () Int)
(declare-fun lam8n10 () Int)
(declare-fun lam8n11 () Int)
(declare-fun lam8n12 () Int)
(declare-fun lam8n13 () Int)
(declare-fun undef1 () Int)
(declare-fun undef14 () Int)
(declare-fun undef15 () Int)
(declare-fun undef106 () Int)
(declare-fun undef133 () Int)
(declare-fun undef2 () Int)
(declare-fun undef105 () Int)
(declare-fun undef16 () Int)
(declare-fun undef20 () Int)
(declare-fun undef111 () Int)
(declare-fun undef134 () Int)
(declare-fun undef107 () Int)
(declare-fun undef108 () Int)
(declare-fun undef109 () Int)
(declare-fun undef28 () Int)
(declare-fun undef29 () Int)
(declare-fun undef34 () Int)
(declare-fun undef35 () Int)
(declare-fun undef113 () Int)
(declare-fun undef118 () Int)
(declare-fun undef119 () Int)
(declare-fun undef112 () Int)
(declare-fun undef120 () Int)
(declare-fun undef114 () Int)
(declare-fun undef115 () Int)
(declare-fun undef116 () Int)
(declare-fun lam12n0 () Int)
(declare-fun lam12n1 () Int)
(declare-fun lam12n2 () Int)
(declare-fun lam12n3 () Int)
(declare-fun lam12n4 () Int)
(declare-fun lam12n5 () Int)
(declare-fun lam12n6 () Int)
(declare-fun RFN1_CT () Int)
(declare-fun RFN1_arg1 () Int)
(declare-fun RFN1_arg2 () Int)
(declare-fun RFN1_arg3 () Int)
(declare-fun RFN1_arg4 () Int)
(declare-fun RFN1_arg5 () Int)
(declare-fun lam10n0 () Int)
(declare-fun lam10n1 () Int)
(declare-fun lam10n2 () Int)
(declare-fun lam10n3 () Int)
(declare-fun lam10n4 () Int)
(declare-fun lam10n5 () Int)
(declare-fun lam10n6 () Int)
(declare-fun lam11n0 () Int)
(declare-fun lam11n1 () Int)
(declare-fun lam11n2 () Int)
(declare-fun lam11n3 () Int)
(declare-fun lam11n4 () Int)
(declare-fun lam11n5 () Int)
(declare-fun lam11n6 () Int)
(declare-fun lam9n0 () Int)
(declare-fun lam9n1 () Int)
(declare-fun lam9n2 () Int)
(declare-fun lam9n3 () Int)
(declare-fun lam9n4 () Int)
(declare-fun lam9n5 () Int)
(declare-fun lam9n6 () Int)
(assert ( and ( <= ( - 1 ) Nl9arg11 ) ( <= Nl9arg11 1 ) ( <= ( - 1 ) Nl9arg21 ) ( <= Nl9arg21 1 ) ( <= ( - 1 ) Nl9arg31 ) ( <= Nl9arg31 1 ) ( <= ( - 1 ) Nl9arg41 ) ( <= Nl9arg41 1 ) ( <= ( - 1 ) Nl9arg51 ) ( <= Nl9arg51 1 ) ( <= ( - 1 ) Nl9arg12 ) ( <= Nl9arg12 1 ) ( <= ( - 1 ) Nl9arg22 ) ( <= Nl9arg22 1 ) ( <= ( - 1 ) Nl9arg32 ) ( <= Nl9arg32 1 ) ( <= ( - 1 ) Nl9arg42 ) ( <= Nl9arg42 1 ) ( <= ( - 1 ) Nl9arg52 ) ( <= Nl9arg52 1 ) ))
(assert ( or ( and ( >= lam0n0 0 ) ( >= lam0n1 0 ) ( >= lam0n2 0 ) ( >= lam0n3 0 ) ( >= lam0n4 0 ) ( >= lam0n5 0 ) ( >= lam0n6 0 ) ( > ( + ( * 1 lam0n0 ) ( * 1 lam0n1 ) ( * 2 lam0n3 ) ( * 3 lam0n4 ) ( * Nl9CT1 lam0n5 ) ( * Nl9CT2 lam0n6 ) ( - 1 ) ) 0 ) ( = ( + ( * ( - 1 ) lam0n3 ) ( * ( - 1 ) lam0n4 ) ( * Nl9arg11 lam0n5 ) ( * Nl9arg12 lam0n6 ) ) 0 ) ( = ( + ( * ( - 1 ) lam0n0 ) ( * Nl9arg21 lam0n5 ) ( * Nl9arg22 lam0n6 ) ) 0 ) ( = ( + ( * 1 lam0n3 ) ( * Nl9arg31 lam0n5 ) ( * Nl9arg32 lam0n6 ) ) 0 ) ( = ( + ( * Nl9arg41 lam0n5 ) ( * Nl9arg42 lam0n6 ) ) 0 ) ( = ( + ( * Nl9arg51 lam0n5 ) ( * Nl9arg52 lam0n6 ) ) 0 ) ( = ( * ( - 1 ) lam0n1 ) 0 ) ( = ( * ( - 1 ) lam0n2 ) 0 ) ) ( and ( >= lam1n0 0 ) ( >= lam1n1 0 ) ( >= lam1n2 0 ) ( >= lam1n3 0 ) ( >= lam1n4 0 ) ( >= lam1n5 0 ) ( >= lam1n6 0 ) ( > ( + ( * 1 lam1n0 ) ( * 1 lam1n1 ) ( * 2 lam1n3 ) ( * 3 lam1n4 ) ( * Nl9CT1 lam1n5 ) ( * Nl9CT2 lam1n6 ) ( - 1 ( + ( + ( + ( + ( + Nl9CT1 ( * Nl9arg11 0 ) ) ( * Nl9arg21 0 ) ) ( * Nl9arg31 0 ) ) ( * Nl9arg41 0 ) ) ( * Nl9arg51 0 ) ) ) ) 0 ) ( = ( + ( * ( - 1 ) lam1n3 ) ( * ( - 1 ) lam1n4 ) ( * Nl9arg11 lam1n5 ) ( * Nl9arg12 lam1n6 ) ) 0 ) ( = ( + ( * ( - 1 ) lam1n0 ) ( * Nl9arg21 lam1n5 ) ( * Nl9arg22 lam1n6 ) ) 0 ) ( = ( + ( * 1 lam1n3 ) ( * Nl9arg31 lam1n5 ) ( * Nl9arg32 lam1n6 ) ) 0 ) ( = ( + ( * Nl9arg41 lam1n5 ) ( * Nl9arg42 lam1n6 ) ) 0 ) ( = ( + ( * Nl9arg51 lam1n5 ) ( * Nl9arg52 lam1n6 ) ) 0 ) ( = ( + ( * ( - 1 ) lam1n1 ) ( - ( + 0 ( * Nl9arg11 1 ) ) ) ) 0 ) ( = ( + ( * ( - 1 ) lam1n2 ) ( - ( + 0 ( * Nl9arg21 1 ) ) ) ) 0 ) ( = ( - ( + 0 ( * Nl9arg31 1 ) ) ) 0 ) ( = ( - ( + 0 ( * Nl9arg41 1 ) ) ) 0 ) ( = ( - ( + 0 ( * Nl9arg51 1 ) ) ) 0 ) ) ))
(assert ( or ( and ( >= lam0n0 0 ) ( >= lam0n1 0 ) ( >= lam0n2 0 ) ( >= lam0n3 0 ) ( >= lam0n4 0 ) ( >= lam0n5 0 ) ( >= lam0n6 0 ) ( > ( + ( * 1 lam0n0 ) ( * 1 lam0n1 ) ( * 2 lam0n3 ) ( * 3 lam0n4 ) ( * Nl9CT1 lam0n5 ) ( * Nl9CT2 lam0n6 ) ( - 1 ) ) 0 ) ( = ( + ( * ( - 1 ) lam0n3 ) ( * ( - 1 ) lam0n4 ) ( * Nl9arg11 lam0n5 ) ( * Nl9arg12 lam0n6 ) ) 0 ) ( = ( + ( * ( - 1 ) lam0n0 ) ( * Nl9arg21 lam0n5 ) ( * Nl9arg22 lam0n6 ) ) 0 ) ( = ( + ( * 1 lam0n3 ) ( * Nl9arg31 lam0n5 ) ( * Nl9arg32 lam0n6 ) ) 0 ) ( = ( + ( * Nl9arg41 lam0n5 ) ( * Nl9arg42 lam0n6 ) ) 0 ) ( = ( + ( * Nl9arg51 lam0n5 ) ( * Nl9arg52 lam0n6 ) ) 0 ) ( = ( * ( - 1 ) lam0n1 ) 0 ) ( = ( * ( - 1 ) lam0n2 ) 0 ) ) ( and ( >= lam2n0 0 ) ( >= lam2n1 0 ) ( >= lam2n2 0 ) ( >= lam2n3 0 ) ( >= lam2n4 0 ) ( >= lam2n5 0 ) ( >= lam2n6 0 ) ( > ( + ( * 1 lam2n0 ) ( * 1 lam2n1 ) ( * 2 lam2n3 ) ( * 3 lam2n4 ) ( * Nl9CT1 lam2n5 ) ( * Nl9CT2 lam2n6 ) ( - 1 ( + ( + ( + ( + ( + Nl9CT2 ( * Nl9arg12 0 ) ) ( * Nl9arg22 0 ) ) ( * Nl9arg32 0 ) ) ( * Nl9arg42 0 ) ) ( * Nl9arg52 0 ) ) ) ) 0 ) ( = ( + ( * ( - 1 ) lam2n3 ) ( * ( - 1 ) lam2n4 ) ( * Nl9arg11 lam2n5 ) ( * Nl9arg12 lam2n6 ) ) 0 ) ( = ( + ( * ( - 1 ) lam2n0 ) ( * Nl9arg21 lam2n5 ) ( * Nl9arg22 lam2n6 ) ) 0 ) ( = ( + ( * 1 lam2n3 ) ( * Nl9arg31 lam2n5 ) ( * Nl9arg32 lam2n6 ) ) 0 ) ( = ( + ( * Nl9arg41 lam2n5 ) ( * Nl9arg42 lam2n6 ) ) 0 ) ( = ( + ( * Nl9arg51 lam2n5 ) ( * Nl9arg52 lam2n6 ) ) 0 ) ( = ( + ( * ( - 1 ) lam2n1 ) ( - ( + 0 ( * Nl9arg12 1 ) ) ) ) 0 ) ( = ( + ( * ( - 1 ) lam2n2 ) ( - ( + 0 ( * Nl9arg22 1 ) ) ) ) 0 ) ( = ( - ( + 0 ( * Nl9arg32 1 ) ) ) 0 ) ( = ( - ( + 0 ( * Nl9arg42 1 ) ) ) 0 ) ( = ( - ( + 0 ( * Nl9arg52 1 ) ) ) 0 ) ) ))
(assert ( or ( and ( <= ( + 1 ( * ( - 1 ) undef1 ) ) 0 ) ( <= ( + 1 ( * ( - 1 ) undef14 ) ) 0 ) ( <= ( + 1 ( * ( - 1 ) undef15 ) ) 0 ) ( not ( <= undef106 0 ) ) ( <= ( + 1 ( * ( - 1 ) undef133 ) ) 0 ) ( <= ( + ( - 1 ) ( * ( - 1 ) undef2 ) undef14 ) 0 ) ( <= ( + undef1 ( * ( - 1 ) undef133 ) ) 0 ) ( <= ( + ( * ( - 1 ) undef1 ) undef14 ) 0 ) ( <= ( * ( - 1 ) undef2 ) 0 ) ( <= ( + ( * ( - 1 ) undef2 ) undef15 ) 0 ) ( <= ( + ( * ( - 1 ) undef15 ) undef105 ) 0 ) ( <= ( + ( * ( - 1 ) undef16 ) undef20 ) 0 ) ( <= ( + ( * ( - 1 ) undef16 ) undef111 ) 0 ) ( <= ( * ( - 1 ) undef134 ) 0 ) ( <= ( + 2 ( * ( - 1 ) undef15 ) undef107 ) 0 ) ( not ( <= ( + ( - 1 ) undef105 ( * ( - 1 ) undef107 ) ) 0 ) ) ( not ( <= ( + ( - 2 ) undef105 ) 0 ) ) ( <= ( + ( + ( + ( + ( + ( + Nl9CT1 ( * Nl9arg11 0 ) ) ( * Nl9arg21 0 ) ) ( * Nl9arg31 0 ) ) ( * Nl9arg41 0 ) ) ( * Nl9arg51 0 ) ) ( * ( + 0 ( * Nl9arg11 1 ) ) undef105 ) ( * ( + 0 ( * Nl9arg21 1 ) ) undef106 ) ( * ( + 0 ( * Nl9arg31 1 ) ) undef107 ) ( * ( + 0 ( * Nl9arg41 1 ) ) undef108 ) ( * ( + 0 ( * Nl9arg51 1 ) ) undef109 ) ) 0 ) ( <= ( + ( + ( + ( + ( + ( + Nl9CT2 ( * Nl9arg12 0 ) ) ( * Nl9arg22 0 ) ) ( * Nl9arg32 0 ) ) ( * Nl9arg42 0 ) ) ( * Nl9arg52 0 ) ) ( * ( + 0 ( * Nl9arg12 1 ) ) undef105 ) ( * ( + 0 ( * Nl9arg22 1 ) ) undef106 ) ( * ( + 0 ( * Nl9arg32 1 ) ) undef107 ) ( * ( + 0 ( * Nl9arg42 1 ) ) undef108 ) ( * ( + 0 ( * Nl9arg52 1 ) ) undef109 ) ) 0 ) ) ( and ( <= ( + 1 ( * ( - 1 ) undef1 ) ) 0 ) ( <= ( + 1 ( * ( - 1 ) undef28 ) ) 0 ) ( <= ( + 1 ( * ( - 1 ) undef29 ) ) 0 ) ( <= ( + 1 undef34 ( * ( - 1 ) undef35 ) ) 0 ) ( not ( <= undef106 0 ) ) ( <= ( + 1 ( * ( - 1 ) undef133 ) ) 0 ) ( <= ( + ( - 1 ) ( * ( - 1 ) undef2 ) undef28 ) 0 ) ( <= ( + ( - 1 ) ( * ( - 1 ) undef34 ) undef111 ) 0 ) ( <= ( + undef1 ( * ( - 1 ) undef133 ) ) 0 ) ( <= ( + ( * ( - 1 ) undef1 ) undef28 ) 0 ) ( <= ( * ( - 1 ) undef2 ) 0 ) ( <= ( + ( * ( - 1 ) undef2 ) undef29 ) 0 ) ( <= ( + ( * ( - 1 ) undef29 ) undef105 ) 0 ) ( <= ( * ( - 1 ) undef34 ) 0 ) ( <= ( * ( - 1 ) undef134 ) 0 ) ( <= ( + 2 ( * ( - 1 ) undef29 ) undef107 ) 0 ) ( not ( <= ( + ( - 1 ) undef105 ( * ( - 1 ) undef107 ) ) 0 ) ) ( not ( <= ( + ( - 2 ) undef105 ) 0 ) ) ( <= ( + ( + ( + ( + ( + ( + Nl9CT1 ( * Nl9arg11 0 ) ) ( * Nl9arg21 0 ) ) ( * Nl9arg31 0 ) ) ( * Nl9arg41 0 ) ) ( * Nl9arg51 0 ) ) ( * ( + 0 ( * Nl9arg11 1 ) ) undef105 ) ( * ( + 0 ( * Nl9arg21 1 ) ) undef106 ) ( * ( + 0 ( * Nl9arg31 1 ) ) undef107 ) ( * ( + 0 ( * Nl9arg41 1 ) ) undef108 ) ( * ( + 0 ( * Nl9arg51 1 ) ) undef109 ) ) 0 ) ( <= ( + ( + ( + ( + ( + ( + Nl9CT2 ( * Nl9arg12 0 ) ) ( * Nl9arg22 0 ) ) ( * Nl9arg32 0 ) ) ( * Nl9arg42 0 ) ) ( * Nl9arg52 0 ) ) ( * ( + 0 ( * Nl9arg12 1 ) ) undef105 ) ( * ( + 0 ( * Nl9arg22 1 ) ) undef106 ) ( * ( + 0 ( * Nl9arg32 1 ) ) undef107 ) ( * ( + 0 ( * Nl9arg42 1 ) ) undef108 ) ( * ( + 0 ( * Nl9arg52 1 ) ) undef109 ) ) 0 ) ) ( and ( <= ( + 1 ( * ( - 1 ) undef1 ) ) 0 ) ( <= ( + 1 ( * ( - 1 ) undef2 ) ) 0 ) ( not ( <= undef113 0 ) ) ( <= ( + 1 undef118 ( * ( - 1 ) undef119 ) ) 0 ) ( <= ( + 1 ( * ( - 1 ) undef119 ) ) 0 ) ( <= ( + 1 ( * ( - 1 ) undef133 ) ) 0 ) ( <= ( + undef1 ( * ( - 1 ) undef133 ) ) 0 ) ( <= ( + ( * ( - 1 ) undef2 ) undef112 ) 0 ) ( <= ( * ( - 1 ) undef118 ) 0 ) ( <= ( * ( - 1 ) undef120 ) 0 ) ( <= ( * ( - 1 ) undef134 ) 0 ) ( <= ( + 2 ( * ( - 1 ) undef2 ) undef114 ) 0 ) ( not ( <= ( + ( - 1 ) undef112 ( * ( - 1 ) undef114 ) ) 0 ) ) ( not ( <= ( + ( - 2 ) undef112 ) 0 ) ) ( <= ( + ( + ( + ( + ( + ( + Nl9CT1 ( * Nl9arg11 0 ) ) ( * Nl9arg21 0 ) ) ( * Nl9arg31 0 ) ) ( * Nl9arg41 0 ) ) ( * Nl9arg51 0 ) ) ( * ( + 0 ( * Nl9arg11 1 ) ) undef112 ) ( * ( + 0 ( * Nl9arg21 1 ) ) undef113 ) ( * ( + 0 ( * Nl9arg31 1 ) ) undef114 ) ( * ( + 0 ( * Nl9arg41 1 ) ) undef115 ) ( * ( + 0 ( * Nl9arg51 1 ) ) undef116 ) ) 0 ) ( <= ( + ( + ( + ( + ( + ( + Nl9CT2 ( * Nl9arg12 0 ) ) ( * Nl9arg22 0 ) ) ( * Nl9arg32 0 ) ) ( * Nl9arg42 0 ) ) ( * Nl9arg52 0 ) ) ( * ( + 0 ( * Nl9arg12 1 ) ) undef112 ) ( * ( + 0 ( * Nl9arg22 1 ) ) undef113 ) ( * ( + 0 ( * Nl9arg32 1 ) ) undef114 ) ( * ( + 0 ( * Nl9arg42 1 ) ) undef115 ) ( * ( + 0 ( * Nl9arg52 1 ) ) undef116 ) ) 0 ) ) ))
(assert ( or ( and ( and ( >= lam12n0 0 ) ( >= lam12n1 0 ) ( >= lam12n2 0 ) ( >= lam12n3 0 ) ( >= lam12n4 0 ) ( >= lam12n5 0 ) ( >= lam12n6 0 ) ( > ( + ( * 1 lam12n0 ) ( * 1 lam12n1 ) ( * 2 lam12n3 ) ( * 3 lam12n4 ) ( * Nl9CT1 lam12n5 ) ( * Nl9CT2 lam12n6 ) ( - 1 ( - ( + ( + ( + ( + ( + RFN1_CT ( * RFN1_arg1 0 ) ) ( * RFN1_arg2 0 ) ) ( * RFN1_arg3 0 ) ) ( * RFN1_arg4 0 ) ) ( * RFN1_arg5 0 ) ) RFN1_CT ) ) ) 0 ) ( = ( + ( * ( - 1 ) lam12n3 ) ( * ( - 1 ) lam12n4 ) ( * Nl9arg11 lam12n5 ) ( * Nl9arg12 lam12n6 ) ( - ( - RFN1_arg1 ) ) ) 0 ) ( = ( + ( * ( - 1 ) lam12n0 ) ( * Nl9arg21 lam12n5 ) ( * Nl9arg22 lam12n6 ) ( - ( - RFN1_arg2 ) ) ) 0 ) ( = ( + ( * 1 lam12n3 ) ( * Nl9arg31 lam12n5 ) ( * Nl9arg32 lam12n6 ) ( - ( - RFN1_arg3 ) ) ) 0 ) ( = ( + ( * Nl9arg41 lam12n5 ) ( * Nl9arg42 lam12n6 ) ( - ( - RFN1_arg4 ) ) ) 0 ) ( = ( + ( * Nl9arg51 lam12n5 ) ( * Nl9arg52 lam12n6 ) ( - ( - RFN1_arg5 ) ) ) 0 ) ( = ( + ( * ( - 1 ) lam12n1 ) ( - ( + 0 ( * RFN1_arg1 1 ) ) ) ) 0 ) ( = ( + ( * ( - 1 ) lam12n2 ) ( - ( + 0 ( * RFN1_arg2 1 ) ) ) ) 0 ) ( = ( - ( + 0 ( * RFN1_arg3 1 ) ) ) 0 ) ( = ( - ( + 0 ( * RFN1_arg4 1 ) ) ) 0 ) ( = ( - ( + 0 ( * RFN1_arg5 1 ) ) ) 0 ) ) ( and ( and ( >= lam10n0 0 ) ( >= lam10n1 0 ) ( >= lam10n2 0 ) ( >= lam10n3 0 ) ( >= lam10n4 0 ) ( >= lam10n5 0 ) ( >= lam10n6 0 ) ( > ( + ( * 1 lam10n0 ) ( * 1 lam10n1 ) ( * 2 lam10n3 ) ( * 3 lam10n4 ) ( * Nl9CT1 lam10n5 ) ( * Nl9CT2 lam10n6 ) ( - 1 ( - RFN1_CT ) ) ) 0 ) ( = ( + ( * ( - 1 ) lam10n3 ) ( * ( - 1 ) lam10n4 ) ( * Nl9arg11 lam10n5 ) ( * Nl9arg12 lam10n6 ) ( - ( - RFN1_arg1 ) ) ) 0 ) ( = ( + ( * ( - 1 ) lam10n0 ) ( * Nl9arg21 lam10n5 ) ( * Nl9arg22 lam10n6 ) ( - ( - RFN1_arg2 ) ) ) 0 ) ( = ( + ( * 1 lam10n3 ) ( * Nl9arg31 lam10n5 ) ( * Nl9arg32 lam10n6 ) ( - ( - RFN1_arg3 ) ) ) 0 ) ( = ( + ( * Nl9arg41 lam10n5 ) ( * Nl9arg42 lam10n6 ) ( - ( - RFN1_arg4 ) ) ) 0 ) ( = ( + ( * Nl9arg51 lam10n5 ) ( * Nl9arg52 lam10n6 ) ( - ( - RFN1_arg5 ) ) ) 0 ) ( = ( * ( - 1 ) lam10n1 ) 0 ) ( = ( * ( - 1 ) lam10n2 ) 0 ) ) ( and ( >= lam11n0 0 ) ( >= lam11n1 0 ) ( >= lam11n2 0 ) ( >= lam11n3 0 ) ( >= lam11n4 0 ) ( >= lam11n5 0 ) ( >= lam11n6 0 ) ( > ( + ( * 1 lam11n0 ) ( * 1 lam11n1 ) ( * 2 lam11n3 ) ( * 3 lam11n4 ) ( * Nl9CT1 lam11n5 ) ( * Nl9CT2 lam11n6 ) ( - 1 ( + ( - ( + ( + ( + ( + ( + RFN1_CT ( * RFN1_arg1 0 ) ) ( * RFN1_arg2 0 ) ) ( * RFN1_arg3 0 ) ) ( * RFN1_arg4 0 ) ) ( * RFN1_arg5 0 ) ) RFN1_CT ) 1 ) ) ) 0 ) ( = ( + ( * ( - 1 ) lam11n3 ) ( * ( - 1 ) lam11n4 ) ( * Nl9arg11 lam11n5 ) ( * Nl9arg12 lam11n6 ) ( - ( - RFN1_arg1 ) ) ) 0 ) ( = ( + ( * ( - 1 ) lam11n0 ) ( * Nl9arg21 lam11n5 ) ( * Nl9arg22 lam11n6 ) ( - ( - RFN1_arg2 ) ) ) 0 ) ( = ( + ( * 1 lam11n3 ) ( * Nl9arg31 lam11n5 ) ( * Nl9arg32 lam11n6 ) ( - ( - RFN1_arg3 ) ) ) 0 ) ( = ( + ( * Nl9arg41 lam11n5 ) ( * Nl9arg42 lam11n6 ) ( - ( - RFN1_arg4 ) ) ) 0 ) ( = ( + ( * Nl9arg51 lam11n5 ) ( * Nl9arg52 lam11n6 ) ( - ( - RFN1_arg5 ) ) ) 0 ) ( = ( + ( * ( - 1 ) lam11n1 ) ( - ( + 0 ( * RFN1_arg1 1 ) ) ) ) 0 ) ( = ( + ( * ( - 1 ) lam11n2 ) ( - ( + 0 ( * RFN1_arg2 1 ) ) ) ) 0 ) ( = ( - ( + 0 ( * RFN1_arg3 1 ) ) ) 0 ) ( = ( - ( + 0 ( * RFN1_arg4 1 ) ) ) 0 ) ( = ( - ( + 0 ( * RFN1_arg5 1 ) ) ) 0 ) ) ) ) ( and ( >= lam9n0 0 ) ( >= lam9n1 0 ) ( >= lam9n2 0 ) ( >= lam9n3 0 ) ( >= lam9n4 0 ) ( >= lam9n5 0 ) ( >= lam9n6 0 ) ( > ( + ( * 1 lam9n0 ) ( * 1 lam9n1 ) ( * 2 lam9n3 ) ( * 3 lam9n4 ) ( * Nl9CT1 lam9n5 ) ( * Nl9CT2 lam9n6 ) ( - 1 ) ) 0 ) ( = ( + ( * ( - 1 ) lam9n3 ) ( * ( - 1 ) lam9n4 ) ( * Nl9arg11 lam9n5 ) ( * Nl9arg12 lam9n6 ) ) 0 ) ( = ( + ( * ( - 1 ) lam9n0 ) ( * Nl9arg21 lam9n5 ) ( * Nl9arg22 lam9n6 ) ) 0 ) ( = ( + ( * 1 lam9n3 ) ( * Nl9arg31 lam9n5 ) ( * Nl9arg32 lam9n6 ) ) 0 ) ( = ( + ( * Nl9arg41 lam9n5 ) ( * Nl9arg42 lam9n6 ) ) 0 ) ( = ( + ( * Nl9arg51 lam9n5 ) ( * Nl9arg52 lam9n6 ) ) 0 ) ( = ( * ( - 1 ) lam9n1 ) 0 ) ( = ( * ( - 1 ) lam9n2 ) 0 ) ) ))
(check-sat)
(exit)
